outputs/case_223.model.txt
capital_adequacy_ratio = 40
net_worth_ratio_prev = -10
net_worth_ratio = -10
special_asset_approval_obtained = False
credit_restriction_applied = False
responsible_person_removed = False
net_worth = -1000000
special_asset_disposed = False
improvement_plan_executed = False
article_149_3_1_measures_executed = True
responsible_person_duty_suspended = False
improvement_plan_submitted = True
responsible_person_compensation_reduced = False
branch_restriction_applied = True
capital_insufficient_measures_submitted = True
capital_insufficient_measures_executed = False
capital_level = 4
penalty = False
capital_severely_insufficient_measures_executed = True
capital_significantly_insufficient_measures_executed = False